; benchmark generated from python API
(set-info :status unknown)
(declare-fun x_days () (_ BitVec 32))
(assert
 (bvsle (_ bv4294930771 32) x_days))
(assert
 (bvsge (_ bv36523 32) x_days))
(assert
 (bvsge x_days (_ bv8341 32)))
(assert
 (bvsle x_days (_ bv8705 32)))
(assert
 (let ((?x469 (bvadd x_days (_ bv730179 32))))
(let ((?x6577 (bvsmod ?x469 (_ bv146097 32))))
(let ((?x1119 (bvsdiv ?x6577 (_ bv36524 32))))
(let ((?x2742 (ite (bvsle (_ bv4 32) ?x1119) (_ bv3 32) ?x1119)))
(let ((?x773 (bvsub ?x6577 (bvmul ?x2742 (_ bv36524 32)))))
(let ((?x1098 (bvsmod ?x773 (_ bv1461 32))))
(let ((?x3291 (bvsdiv ?x1098 (_ bv365 32))))
(let ((?x3183 (ite (bvsle (_ bv4 32) ?x3291) (_ bv3 32) ?x3291)))
(let ((?x76145 (bvadd (bvadd (bvmul (bvsdiv ?x469 (_ bv146097 32)) (_ bv400 32)) (bvmul ?x2742 (_ bv100 32))) (bvmul (bvsdiv ?x773 (_ bv1461 32)) (_ bv4 32)))))
(let ((?x4147 (bvadd (bvadd ?x76145 ?x3183) (_ bv1 32))))
(let (($x7263 (or (and (= (bvsmod ?x4147 (_ bv4 32)) (_ bv0 32)) (and (distinct (bvsmod ?x4147 (_ bv100 32)) (_ bv0 32)) true)) (= (bvsmod ?x4147 (_ bv400 32)) (_ bv0 32)))))
(let ((?x7325 (bvsub ?x1098 (bvmul ?x3183 (_ bv365 32)))))
(let ((?x8217 (ite $x7263 (_ bv31 32) (_ bv31 32))))
(let (($x37289 (bvsge ?x7325 ?x8217)))
(let ((?x2809 (ite $x37289 (bvadd (bvsub ?x7325 ?x8217) (_ bv1 32)) (bvadd (bvsub ?x7325 (ite $x7263 (_ bv0 32) (_ bv0 32))) (_ bv1 32)))))
(let ((?x2296 (ite $x7263 (_ bv60 32) (_ bv59 32))))
(let (($x73930 (bvsge ?x7325 ?x2296)))
(let ((?x5133 (ite $x7263 (_ bv91 32) (_ bv90 32))))
(let (($x47417 (bvsge ?x7325 ?x5133)))
(let ((?x45555 (ite $x47417 (bvadd (bvsub ?x7325 ?x5133) (_ bv1 32)) (ite $x73930 (bvadd (bvsub ?x7325 ?x2296) (_ bv1 32)) ?x2809))))
(let ((?x11908 (ite $x7263 (_ bv121 32) (_ bv120 32))))
(let (($x3340 (bvsge ?x7325 ?x11908)))
(let ((?x3156 (ite $x7263 (_ bv152 32) (_ bv151 32))))
(let (($x1906 (bvsge ?x7325 ?x3156)))
(let ((?x73950 (ite $x1906 (bvadd (bvsub ?x7325 ?x3156) (_ bv1 32)) (ite $x3340 (bvadd (bvsub ?x7325 ?x11908) (_ bv1 32)) ?x45555))))
(let ((?x6068 (ite $x7263 (_ bv182 32) (_ bv181 32))))
(let (($x3564 (bvsge ?x7325 ?x6068)))
(let ((?x2577 (ite $x7263 (_ bv213 32) (_ bv212 32))))
(let (($x61617 (bvsge ?x7325 ?x2577)))
(let ((?x26054 (ite $x61617 (bvadd (bvsub ?x7325 ?x2577) (_ bv1 32)) (ite $x3564 (bvadd (bvsub ?x7325 ?x6068) (_ bv1 32)) ?x73950))))
(let ((?x2937 (ite $x7263 (_ bv244 32) (_ bv243 32))))
(let (($x654 (bvsge ?x7325 ?x2937)))
(let ((?x5091 (ite $x7263 (_ bv274 32) (_ bv273 32))))
(let (($x61399 (bvsge ?x7325 ?x5091)))
(let ((?x5143 (ite $x61399 (bvadd (bvsub ?x7325 ?x5091) (_ bv1 32)) (ite $x654 (bvadd (bvsub ?x7325 ?x2937) (_ bv1 32)) ?x26054))))
(let ((?x3364 (ite $x7263 (_ bv305 32) (_ bv304 32))))
(let (($x4494 (bvsge ?x7325 ?x3364)))
(let ((?x33573 (ite $x7263 (_ bv335 32) (_ bv334 32))))
(let (($x3391 (bvsge ?x7325 ?x33573)))
(let ((?x3476 (ite $x3391 (bvadd (bvsub ?x7325 ?x33573) (_ bv1 32)) (ite $x4494 (bvadd (bvsub ?x7325 ?x3364) (_ bv1 32)) ?x5143))))
(let ((?x3988 (ite $x1906 (_ bv6 32) (ite $x3340 (_ bv5 32) (ite $x47417 (_ bv4 32) (ite $x73930 (_ bv3 32) (ite $x37289 (_ bv2 32) (_ bv1 32))))))))
(let ((?x5681 (ite $x4494 (_ bv11 32) (ite $x61399 (_ bv10 32) (ite $x654 (_ bv9 32) (ite $x61617 (_ bv8 32) (ite $x3564 (_ bv7 32) ?x3988)))))))
(let ((?x1173 (bvadd (ite $x3391 (_ bv12 32) ?x5681) (bvadd (bvmul (_ bv0 32) (_ bv12 32)) (_ bv2 32)))))
(let ((?x6965 (bvsub (ite (bvuge ?x1173 (_ bv2147483648 32)) (bvsub ?x1173 (_ bv0 32)) ?x1173) (_ bv1 32))))
(let ((?x12363 (bvsmod ?x6965 (_ bv12 32))))
(let ((?x19856 (bvadd ?x12363 (_ bv1 32))))
(let ((?x5160 (ite (or (= ?x19856 (_ bv4 32)) (= ?x19856 (_ bv6 32)) (= ?x19856 (_ bv9 32)) (= ?x19856 (_ bv11 32))) (_ bv30 32) (_ bv31 32))))
(let ((?x15556 (bvsdiv ?x6965 (_ bv12 32))))
(let ((?x8252 (ite (and (bvuge ?x6965 (_ bv2147483648 32)) (and (distinct (_ bv0 32) ?x12363) true)) (bvsub ?x15556 (_ bv1 32)) ?x15556)))
(let ((?x695 (bvadd ?x4147 (bvadd (_ bv0 32) ?x8252))))
(let (($x475 (or (and (= (bvsmod ?x695 (_ bv4 32)) (_ bv0 32)) (and (distinct (bvsmod ?x695 (_ bv100 32)) (_ bv0 32)) true)) (= (bvsmod ?x695 (_ bv400 32)) (_ bv0 32)))))
(let ((?x11357 (ite (= ?x19856 (_ bv2 32)) (ite $x475 (_ bv29 32) (_ bv28 32)) ?x5160)))
(let ((?x4020 (ite (bvsgt (_ bv1 32) ?x3476) (_ bv1 32) (ite (bvsgt ?x3476 ?x11357) ?x11357 ?x3476))))
(let ((?x40073 (ite (bvsgt (_ bv1 32) ?x4020) (_ bv1 32) (ite (bvsgt ?x4020 ?x11357) ?x11357 ?x4020))))
(let ((?x3329 (ite (= (_ bv2 32) ?x19856) (ite $x475 (_ bv31 32) (_ bv31 32)) (ite (= (_ bv1 32) ?x19856) (ite $x475 (_ bv0 32) (_ bv0 32)) (_ bv0 32)))))
(let ((?x4253 (ite (= (_ bv4 32) ?x19856) (ite $x475 (_ bv91 32) (_ bv90 32)) (ite (= (_ bv3 32) ?x19856) (ite $x475 (_ bv60 32) (_ bv59 32)) ?x3329))))
(let ((?x1118 (ite (= (_ bv6 32) ?x19856) (ite $x475 (_ bv152 32) (_ bv151 32)) (ite (= (_ bv5 32) ?x19856) (ite $x475 (_ bv121 32) (_ bv120 32)) ?x4253))))
(let ((?x26201 (ite (= (_ bv8 32) ?x19856) (ite $x475 (_ bv213 32) (_ bv212 32)) (ite (= (_ bv7 32) ?x19856) (ite $x475 (_ bv182 32) (_ bv181 32)) ?x1118))))
(let ((?x15513 (ite (= (_ bv10 32) ?x19856) (ite $x475 (_ bv274 32) (_ bv273 32)) (ite (= (_ bv9 32) ?x19856) (ite $x475 (_ bv244 32) (_ bv243 32)) ?x26201))))
(let ((?x26236 (ite (= (_ bv12 32) ?x19856) (ite $x475 (_ bv335 32) (_ bv334 32)) (ite (= (_ bv11 32) ?x19856) (ite $x475 (_ bv305 32) (_ bv304 32)) ?x15513))))
(let ((?x2639 (bvadd (bvmul (_ bv365 32) (bvsub ?x695 (_ bv1 32))) (bvsdiv (bvsub ?x695 (_ bv1 32)) (_ bv4 32)))))
(let ((?x10050 (bvadd (bvsub ?x2639 (bvsdiv (bvsub ?x695 (_ bv1 32)) (_ bv100 32))) (bvsdiv (bvsub ?x695 (_ bv1 32)) (_ bv400 32)))))
(let ((?x600 (bvadd (bvadd (bvsub (bvadd (bvadd ?x10050 ?x26236) (bvsub ?x40073 (_ bv1 32))) (_ bv730179 32)) (_ bv0 32)) (_ bv730179 32))))
(let ((?x8224 (bvsmod ?x600 (_ bv146097 32))))
(let ((?x2755 (bvsdiv ?x8224 (_ bv36524 32))))
(let ((?x15448 (ite (bvsle (_ bv4 32) ?x2755) (_ bv3 32) ?x2755)))
(let ((?x920 (bvsub ?x8224 (bvmul ?x15448 (_ bv36524 32)))))
(let ((?x15656 (bvsmod ?x920 (_ bv1461 32))))
(let ((?x15487 (bvsdiv ?x15656 (_ bv365 32))))
(let ((?x76864 (ite (bvsle (_ bv4 32) ?x15487) (_ bv3 32) ?x15487)))
(let ((?x73403 (bvadd (bvadd (bvmul (bvsdiv ?x600 (_ bv146097 32)) (_ bv400 32)) (bvmul ?x15448 (_ bv100 32))) (bvmul (bvsdiv ?x920 (_ bv1461 32)) (_ bv4 32)))))
(let ((?x14997 (bvadd (bvadd ?x73403 ?x76864) (_ bv1 32))))
(let (($x24318 (or (and (= (bvsmod ?x14997 (_ bv4 32)) (_ bv0 32)) (and (distinct (bvsmod ?x14997 (_ bv100 32)) (_ bv0 32)) true)) (= (bvsmod ?x14997 (_ bv400 32)) (_ bv0 32)))))
(let ((?x20653 (bvsub ?x15656 (bvmul ?x76864 (_ bv365 32)))))
(let ((?x3153 (ite $x24318 (_ bv31 32) (_ bv31 32))))
(let (($x8242 (bvsge ?x20653 ?x3153)))
(let ((?x1992 (ite $x8242 (bvadd (bvsub ?x20653 ?x3153) (_ bv1 32)) (bvadd (bvsub ?x20653 (ite $x24318 (_ bv0 32) (_ bv0 32))) (_ bv1 32)))))
(let ((?x15664 (ite $x24318 (_ bv60 32) (_ bv59 32))))
(let (($x2529 (bvsge ?x20653 ?x15664)))
(let ((?x14937 (ite $x24318 (_ bv91 32) (_ bv90 32))))
(let (($x5310 (bvsge ?x20653 ?x14937)))
(let ((?x15345 (ite $x5310 (bvadd (bvsub ?x20653 ?x14937) (_ bv1 32)) (ite $x2529 (bvadd (bvsub ?x20653 ?x15664) (_ bv1 32)) ?x1992))))
(let ((?x73943 (ite $x24318 (_ bv121 32) (_ bv120 32))))
(let (($x20713 (bvsge ?x20653 ?x73943)))
(let ((?x20667 (ite $x24318 (_ bv152 32) (_ bv151 32))))
(let (($x40798 (bvsge ?x20653 ?x20667)))
(let ((?x2456 (ite $x40798 (bvadd (bvsub ?x20653 ?x20667) (_ bv1 32)) (ite $x20713 (bvadd (bvsub ?x20653 ?x73943) (_ bv1 32)) ?x15345))))
(let ((?x15065 (ite $x24318 (_ bv182 32) (_ bv181 32))))
(let (($x40932 (bvsge ?x20653 ?x15065)))
(let ((?x3516 (ite $x24318 (_ bv213 32) (_ bv212 32))))
(let (($x19938 (bvsge ?x20653 ?x3516)))
(let ((?x1138 (ite $x19938 (bvadd (bvsub ?x20653 ?x3516) (_ bv1 32)) (ite $x40932 (bvadd (bvsub ?x20653 ?x15065) (_ bv1 32)) ?x2456))))
(let ((?x24303 (ite $x24318 (_ bv244 32) (_ bv243 32))))
(let (($x77276 (bvsge ?x20653 ?x24303)))
(let ((?x4790 (ite $x24318 (_ bv274 32) (_ bv273 32))))
(let (($x562 (bvsge ?x20653 ?x4790)))
(let ((?x992 (ite $x562 (bvadd (bvsub ?x20653 ?x4790) (_ bv1 32)) (ite $x77276 (bvadd (bvsub ?x20653 ?x24303) (_ bv1 32)) ?x1138))))
(let ((?x4836 (ite $x24318 (_ bv305 32) (_ bv304 32))))
(let (($x1865 (bvsge ?x20653 ?x4836)))
(let ((?x20773 (ite $x24318 (_ bv335 32) (_ bv334 32))))
(let (($x6996 (bvsge ?x20653 ?x20773)))
(let ((?x4549 (ite $x6996 (bvadd (bvsub ?x20653 ?x20773) (_ bv1 32)) (ite $x1865 (bvadd (bvsub ?x20653 ?x4836) (_ bv1 32)) ?x992))))
(let (($x57757 (= (_ bv0 32) (_ bv0 32))))
(let (($x827 (and (= (bvsmod (ite $x57757 ?x695 ?x14997) (_ bv4 32)) (_ bv0 32)) (and (distinct (bvsmod (ite $x57757 ?x695 ?x14997) (_ bv100 32)) (_ bv0 32)) true))))
(let (($x8016 (or $x827 (= (bvsmod (ite $x57757 ?x695 ?x14997) (_ bv400 32)) (_ bv0 32)))))
(let ((?x4267 (ite $x40798 (_ bv6 32) (ite $x20713 (_ bv5 32) (ite $x5310 (_ bv4 32) (ite $x2529 (_ bv3 32) (ite $x8242 (_ bv2 32) (_ bv1 32))))))))
(let ((?x1213 (ite $x1865 (_ bv11 32) (ite $x562 (_ bv10 32) (ite $x77276 (_ bv9 32) (ite $x19938 (_ bv8 32) (ite $x40932 (_ bv7 32) ?x4267)))))))
(let ((?x2196 (ite $x57757 ?x19856 (ite $x6996 (_ bv12 32) ?x1213))))
(let ((?x45950 (ite (= (_ bv2 32) ?x2196) (ite $x8016 (_ bv31 32) (_ bv31 32)) (ite (= (_ bv1 32) ?x2196) (ite $x8016 (_ bv0 32) (_ bv0 32)) (_ bv0 32)))))
(let ((?x2087 (ite (= (_ bv4 32) ?x2196) (ite $x8016 (_ bv91 32) (_ bv90 32)) (ite (= (_ bv3 32) ?x2196) (ite $x8016 (_ bv60 32) (_ bv59 32)) ?x45950))))
(let ((?x2758 (ite (= (_ bv6 32) ?x2196) (ite $x8016 (_ bv152 32) (_ bv151 32)) (ite (= (_ bv5 32) ?x2196) (ite $x8016 (_ bv121 32) (_ bv120 32)) ?x2087))))
(let ((?x3892 (ite (= (_ bv8 32) ?x2196) (ite $x8016 (_ bv213 32) (_ bv212 32)) (ite (= (_ bv7 32) ?x2196) (ite $x8016 (_ bv182 32) (_ bv181 32)) ?x2758))))
(let ((?x1870 (ite (= (_ bv10 32) ?x2196) (ite $x8016 (_ bv274 32) (_ bv273 32)) (ite (= (_ bv9 32) ?x2196) (ite $x8016 (_ bv244 32) (_ bv243 32)) ?x3892))))
(let ((?x8148 (ite (= (_ bv12 32) ?x2196) (ite $x8016 (_ bv335 32) (_ bv334 32)) (ite (= (_ bv11 32) ?x2196) (ite $x8016 (_ bv305 32) (_ bv304 32)) ?x1870))))
(let ((?x4164 (bvadd (bvmul (_ bv365 32) (bvsub (ite $x57757 ?x695 ?x14997) (_ bv1 32))) (bvsdiv (bvsub (ite $x57757 ?x695 ?x14997) (_ bv1 32)) (_ bv4 32)))))
(let ((?x5938 (bvadd (bvsub ?x4164 (bvsdiv (bvsub (ite $x57757 ?x695 ?x14997) (_ bv1 32)) (_ bv100 32))) (bvsdiv (bvsub (ite $x57757 ?x695 ?x14997) (_ bv1 32)) (_ bv400 32)))))
(let ((?x959 (bvsub (bvadd (bvadd ?x5938 ?x8148) (bvsub (ite $x57757 ?x40073 ?x4549) (_ bv1 32))) (_ bv730179 32))))
(= ?x959 (bvadd x_days (_ bv61 32)))))))))))))))))))))))))))))))))))))))))))))))))))))))))))))))))))))))))))))))))))))))))))))))))))))))))))))))))))))))))
(check-sat)
